140898
65,43,86,0,42,78,90,59,95,77,93,2,100,104,37,103,10,40,66,94,53,70,36,48,69,17,31,6,52,83,38,35,84,47,72,1,32,81,71,24,44,99,50,62,74,34,102,14,3,60,46,13,49,67,98,18,41,80,68,5,76,45,85,61,21,20,16,89,63,15,19,55,39,87,12,97,105,96,30,64,51,4,29,28,54,7,11,92,88,79,22,91,8,56,82,33,25,73,101,23,57,75,27,26,9,58
